RAW/CMTQ/fspd/CMT14Q.vrp_seed-0.out
821.7458258	0.307	29.075
