RAW/CMTQ/fspd/CMT14Q.vrp_seed-0.sol
Route #1: 69 66 68 64 61 72 74 62 65 67
Route #2: 21 22 26 28 30 29 27 25 24 20
Route #3: 75 1 4 6 9 11 8 7 3 5
Route #4: 90 87 86 83 82 84 85 88 89 91
Route #5: 98 96 95 94 92 93 97 100 99 2
Route #6: 23 13 17 18 19 15 16 14 12 10
Route #7: 47 49 50 51 48 45 46 44 42 43
Route #8: 81 78 76 71 70 73 77 79 80 63
Route #9: 57 55 54 53 56 58 60 59 40 41
Route #10: 52 31 35 37 38 39 36 34 33 32
Cost 821.745826